
n_substitutes = 3;
n_lessons = 6;

unavailabilities =
%%%%   Start , End
    [| 0 , 0 ,
     | 540, 600,
     | 480, 540
    |];

lessons = 
%%%%  Start , End
    [| 480 , 540 ,  % 1, 2
     | 480 , 540 ,  % 1, 2
     | 540 , 600 ,  % 1, 3
     | 540 , 600 ,  %% 1, 3
     | 600 , 660 ,  %% 1, 2, 3
     | 720 , 780    %% 1, 2, 3
    |];
